regression_itp/log-2023-02-20-10-22-36/uf_itp_problem.smt2.out
unsat
((not (= k (g c d))))
